/* Objective function */
max: +6 s_1 +5 s_2 +4 s_3;

/* Constraints */
-8 s_1 +x_1_1 +x_2_1 +x_3_1 +x_4_1 +x_5_1 +x_6_1 +x_7_1 +x_8_1 = 0;
-16 s_2 +x_1_2 +x_2_2 +x_3_2 +x_4_2 +x_5_2 +x_6_2 +x_7_2 +x_8_2 = 0;
-24 s_3 +x_1_3 +x_2_3 +x_3_3 +x_4_3 +x_5_3 +x_6_3 +x_7_3 +x_8_3 = 0;
+x_1_1 +x_1_2 +x_1_3 <= 8;
+x_2_1 +x_2_2 +x_2_3 <= 8;
+x_3_1 +x_3_2 +x_3_3 <= 8;
+x_4_1 +x_4_2 +x_4_3 <= 8;
+x_5_1 +x_5_2 +x_5_3 <= 8;
+x_6_1 +x_6_2 +x_6_3 <= 8;
+x_7_1 +x_7_2 +x_7_3 <= 8;
+x_8_1 +x_8_2 +x_8_3 <= 8;
+x_1_1 -8 t_1_1 <= 0;
+x_1_1 -8 t_1_1 <= 0;
+x_2_1 -8 t_1_2 <= 0;
+x_2_1 -8 t_1_2 <= 0;
+x_3_1 -8 t_1_3 <= 0;
+x_3_1 -8 t_1_3 <= 0;
+x_4_1 -8 t_1_4 <= 0;
+x_4_1 -8 t_1_4 <= 0;
+x_5_1 -8 t_1_5 <= 0;
+x_5_1 -8 t_1_5 <= 0;
+x_6_1 -8 t_1_6 <= 0;
+x_6_1 -8 t_1_6 <= 0;
+x_7_1 -8 t_1_7 <= 0;
+x_7_1 -8 t_1_7 <= 0;
+x_8_1 -8 t_1_8 <= 0;
+x_8_1 -8 t_1_8 <= 0;
+x_1_2 -16 t_2_1 <= 0;
+x_1_2 -8 t_2_1 <= 0;
+x_2_2 -16 t_2_2 <= 0;
+x_2_2 -8 t_2_2 <= 0;
+x_3_2 -16 t_2_3 <= 0;
+x_3_2 -8 t_2_3 <= 0;
+x_4_2 -16 t_2_4 <= 0;
+x_4_2 -8 t_2_4 <= 0;
+x_5_2 -16 t_2_5 <= 0;
+x_5_2 -8 t_2_5 <= 0;
+x_6_2 -16 t_2_6 <= 0;
+x_6_2 -8 t_2_6 <= 0;
+x_7_2 -16 t_2_7 <= 0;
+x_7_2 -8 t_2_7 <= 0;
+x_8_2 -16 t_2_8 <= 0;
+x_8_2 -8 t_2_8 <= 0;
+x_1_3 -24 t_3_1 <= 0;
+x_1_3 -8 t_3_1 <= 0;
+x_2_3 -24 t_3_2 <= 0;
+x_2_3 -8 t_3_2 <= 0;
+x_3_3 -24 t_3_3 <= 0;
+x_3_3 -8 t_3_3 <= 0;
+x_4_3 -24 t_3_4 <= 0;
+x_4_3 -8 t_3_4 <= 0;
+x_5_3 -24 t_3_5 <= 0;
+x_5_3 -8 t_3_5 <= 0;
+x_6_3 -24 t_3_6 <= 0;
+x_6_3 -8 t_3_6 <= 0;
+x_7_3 -24 t_3_7 <= 0;
+x_7_3 -8 t_3_7 <= 0;
+x_8_3 -24 t_3_8 <= 0;
+x_8_3 -8 t_3_8 <= 0;
+t_1_1 +t_1_2 +t_1_3 +t_1_4 +t_1_5 +t_1_6 +t_1_7 +t_1_8 -9 c_1 = 0;
+t_2_1 +t_2_2 +t_2_3 +t_2_4 +t_2_5 +t_2_6 +t_2_7 +t_2_8 -9 c_2 = 0;
+t_3_1 +t_3_2 +t_3_3 +t_3_4 +t_3_5 +t_3_6 +t_3_7 +t_3_8 -9 c_3 = 0;
R63: +9 c_1 >= 1;
R64: +9 c_1 <= 4;
R65: +9 c_2 >= 1;
R66: +9 c_2 <= 4;
R67: +9 c_3 >= 1;
R68: +9 c_3 <= 4;

/* Variable bounds */
s_1 <= 1;
s_2 <= 1;
s_3 <= 1;
t_1_1 <= 1;
t_1_2 <= 1;
t_1_3 <= 1;
t_1_4 <= 1;
t_1_5 <= 1;
t_1_6 <= 1;
t_1_7 <= 1;
t_1_8 <= 1;
t_2_1 <= 1;
t_2_2 <= 1;
t_2_3 <= 1;
t_2_4 <= 1;
t_2_5 <= 1;
t_2_6 <= 1;
t_2_7 <= 1;
t_2_8 <= 1;
t_3_1 <= 1;
t_3_2 <= 1;
t_3_3 <= 1;
t_3_4 <= 1;
t_3_5 <= 1;
t_3_6 <= 1;
t_3_7 <= 1;
t_3_8 <= 1;

/* Integer definitions */
int s_1,s_2,s_3,x_1_1,x_1_2,x_1_3,x_2_1,x_2_2,x_2_3,x_3_1,x_3_2,x_3_3,x_4_1,x_4_2,x_4_3,x_5_1,x_5_2,x_5_3,x_6_1,x_6_2,x_6_3,x_7_1,x_7_2,x_7_3,x_8_1,x_8_2,x_8_3,t_1_1,t_1_2,t_1_3,t_1_4,t_1_5,t_1_6,t_1_7,t_1_8,t_2_1,t_2_2,t_2_3,t_2_4,t_2_5,t_2_6,t_2_7,t_2_8,t_3_1,t_3_2,t_3_3,t_3_4,t_3_5,t_3_6,t_3_7,t_3_8;
